data/MCDM/NO_CORR/GEN_FROM_60/15_ITEMS_1000_GEN/K5015W15.KNP.mps
NAME          BLANK   
ROWS
 N  OBJROW
 L  R0000000
COLUMNS
    C0000000  OBJROW     -675.         R0000000  669.        
    C0000001  OBJROW     -830.         R0000000  806.        
    C0000002  OBJROW     -460.         R0000000  324.        
    C0000003  OBJROW     -902.         R0000000  927.        
    C0000004  OBJROW     -87.          R0000000  877.        
    C0000005  OBJROW     -380.         R0000000  30.         
    C0000006  OBJROW     -871.         R0000000  725.        
    C0000007  OBJROW     -442.         R0000000  428.        
    C0000008  OBJROW     -546.         R0000000  573.        
    C0000009  OBJROW     -308.         R0000000  423.        
    C0000010  OBJROW     -253.         R0000000  642.        
    C0000011  OBJROW     -293.         R0000000  255.        
    C0000012  OBJROW     -470.         R0000000  35.         
    C0000013  OBJROW     -477.         R0000000  480.        
    C0000014  OBJROW     -73.          R0000000  460.        
RHS
    RHS       R0000000  13564.      
BOUNDS
 BV BOUND     C0000000  1.          
 BV BOUND     C0000001  1.          
 BV BOUND     C0000002  1.          
 BV BOUND     C0000003  1.          
 BV BOUND     C0000004  1.          
 BV BOUND     C0000005  1.          
 BV BOUND     C0000006  1.          
 BV BOUND     C0000007  1.          
 BV BOUND     C0000008  1.          
 BV BOUND     C0000009  1.          
 BV BOUND     C0000010  1.          
 BV BOUND     C0000011  1.          
 BV BOUND     C0000012  1.          
 BV BOUND     C0000013  1.          
 BV BOUND     C0000014  1.          
ENDATA
