data/MCDM/NO_CORR/GEN_FROM_60/15_ITEMS_1000_GEN/K5015W15.KNP.txt
N 15
M 16
LC 15
LC 16
LC 17
LC 18
LC 19
LC 20
LC 21
LC 22
LC 23
LC 24
LC 25
LC 26
LC 27
LC 28
LC 29
LR 1
LR 2
LR 3
LR 4
LR 5
LR 6
LR 7
LR 8
LR 9
LR 10
LR 11
LR 12
LR 13
LR 14
LR 15
LR 16
LO -675
LO -830
LO -460
LO -902
LO -87
LO -380
LO -871
LO -442
LO -546
LO -308
LO -253
LO -293
LO -470
LO -477
LO -73
OS 1
IC 103
IC 293
IC 174
IC 13
IC 565
IC 868
IC 623
IC 979
IC 369
IC 309
IC 740
IC 150
IC 845
IC 828
IC 263
IB 3561
